NAME          DCAP_2_4_3_500_SS16
ROWS
 N  OBJ
 L  CON1
 L  CON2
 L  CON3
 L  CON4
 L  CON5
 L  CON6
 L  CON7
 L  CON8
 L  CON9
 L  CON10
 L  CON11
 L  CON12
 E  CON13
 E  CON14
 E  CON15
 E  CON16
 E  CON17
 E  CON18
 E  CON19
 E  CON20
 E  CON21
 E  CON22
 E  CON23
 E  CON24
COLUMNS
    x[1,1]    OBJ       6.180167      CON1      1.000000    
    x[1,1]    CON7      -1.000000     CON8      -1.000000   
    x[1,1]    CON9      -1.000000   
    x[1,2]    OBJ       6.563535      CON2      1.000000    
    x[1,2]    CON8      -1.000000     CON9      -1.000000   
    x[1,3]    OBJ       7.443064      CON3      1.000000    
    x[1,3]    CON9      -1.000000   
    x[2,1]    OBJ       6.732585      CON4      1.000000    
    x[2,1]    CON10     -1.000000     CON11     -1.000000   
    x[2,1]    CON12     -1.000000   
    x[2,2]    OBJ       5.039546      CON5      1.000000    
    x[2,2]    CON11     -1.000000     CON12     -1.000000   
    x[2,3]    OBJ       6.054841      CON6      1.000000    
    x[2,3]    CON12     -1.000000   
    MARKER    'MARKER'                'INTORG'
    u[1,1]    OBJ       48.076654     CON1      -1.000000   
    u[1,2]    OBJ       20.066487     CON2      -1.000000   
    u[1,3]    OBJ       32.230043     CON3      -1.000000   
    u[2,1]    OBJ       49.996186     CON4      -1.000000   
    u[2,2]    OBJ       49.466655     CON5      -1.000000   
    u[2,3]    OBJ       27.484319     CON6      -1.000000   
    y[1,1,1]  OBJ       9.911733      CON7      0.627704    
    y[1,1,1]  CON13     1.000000    
    y[1,1,2]  OBJ       8.577772      CON8      0.984438    
    y[1,1,2]  CON14     1.000000    
    y[1,1,3]  OBJ       7.923389      CON9      1.389740    
    y[1,1,3]  CON15     1.000000    
    y[1,2,1]  OBJ       7.044826      CON7      1.206878    
    y[1,2,1]  CON16     1.000000    
    y[1,2,2]  OBJ       9.017397      CON8      1.435672    
    y[1,2,2]  CON17     1.000000    
    y[1,2,3]  OBJ       5.923027      CON9      0.713694    
    y[1,2,3]  CON18     1.000000    
    y[1,3,1]  OBJ       8.249037      CON7      1.408737    
    y[1,3,1]  CON19     1.000000    
    y[1,3,2]  OBJ       7.983942      CON8      0.943681    
    y[1,3,2]  CON20     1.000000    
    y[1,3,3]  OBJ       8.008400      CON9      1.397417    
    y[1,3,3]  CON21     1.000000    
    y[1,4,1]  OBJ       7.178927      CON7      1.469966    
    y[1,4,1]  CON22     1.000000    
    y[1,4,2]  OBJ       7.081532      CON8      0.560474    
    y[1,4,2]  CON23     1.000000    
    y[1,4,3]  OBJ       8.658608      CON9      1.051984    
    y[1,4,3]  CON24     1.000000    
    y[2,1,1]  OBJ       9.107721      CON10     0.627704    
    y[2,1,1]  CON13     1.000000    
    y[2,1,2]  OBJ       8.033913      CON11     0.984438    
    y[2,1,2]  CON14     1.000000    
    y[2,1,3]  OBJ       9.768695      CON12     1.389740    
    y[2,1,3]  CON15     1.000000    
    y[2,2,1]  OBJ       7.439400      CON10     1.206878    
    y[2,2,1]  CON16     1.000000    
    y[2,2,2]  OBJ       6.635614      CON11     1.435672    
    y[2,2,2]  CON17     1.000000    
    y[2,2,3]  OBJ       5.712327      CON12     0.713694    
    y[2,2,3]  CON18     1.000000    
    y[2,3,1]  OBJ       7.400822      CON10     1.408737    
    y[2,3,1]  CON19     1.000000    
    y[2,3,2]  OBJ       6.188598      CON11     0.943681    
    y[2,3,2]  CON20     1.000000    
    y[2,3,3]  OBJ       8.635351      CON12     1.397417    
    y[2,3,3]  CON21     1.000000    
    y[2,4,1]  OBJ       7.049657      CON10     1.469966    
    y[2,4,1]  CON22     1.000000    
    y[2,4,2]  OBJ       6.752079      CON11     0.560474    
    y[2,4,2]  CON23     1.000000    
    y[2,4,3]  OBJ       6.763861      CON12     1.051984    
    y[2,4,3]  CON24     1.000000    
    z[1,1]    OBJ       984.915820    CON13     1.000000    
    z[1,2]    OBJ       772.252425    CON14     1.000000    
    z[1,3]    OBJ       581.842517    CON15     1.000000    
    z[2,1]    OBJ       615.369983    CON16     1.000000    
    z[2,2]    OBJ       804.946699    CON17     1.000000    
    z[2,3]    OBJ       798.423449    CON18     1.000000    
    z[3,1]    OBJ       574.068470    CON19     1.000000    
    z[3,2]    OBJ       671.862917    CON20     1.000000    
    z[3,3]    OBJ       543.652838    CON21     1.000000    
    z[4,1]    OBJ       550.192254    CON22     1.000000    
    z[4,2]    OBJ       597.964217    CON23     1.000000    
    z[4,3]    OBJ       671.186373    CON24     1.000000    
    MARKER    'MARKER'                 'INTEND'
RHS
    RHS       CON1      -0.000000     CON2      -0.000000   
    RHS       CON3      -0.000000     CON4      -0.000000   
    RHS       CON5      -0.000000     CON6      -0.000000   
    RHS       CON7      -0.000000     CON8      -0.000000   
    RHS       CON9      -0.000000     CON10     -0.000000   
    RHS       CON11     -0.000000     CON12     -0.000000   
    RHS       CON13     1.000000      CON14     1.000000    
    RHS       CON15     1.000000      CON16     1.000000    
    RHS       CON17     1.000000      CON18     1.000000    
    RHS       CON19     1.000000      CON20     1.000000    
    RHS       CON21     1.000000      CON22     1.000000    
    RHS       CON23     1.000000      CON24     1.000000    
BOUNDS
 BV BOUND     u[1,1]  
 BV BOUND     u[1,2]  
 BV BOUND     u[1,3]  
 BV BOUND     u[2,1]  
 BV BOUND     u[2,2]  
 BV BOUND     u[2,3]  
 BV BOUND     y[1,1,1]
 BV BOUND     y[1,1,2]
 BV BOUND     y[1,1,3]
 BV BOUND     y[1,2,1]
 BV BOUND     y[1,2,2]
 BV BOUND     y[1,2,3]
 BV BOUND     y[1,3,1]
 BV BOUND     y[1,3,2]
 BV BOUND     y[1,3,3]
 BV BOUND     y[1,4,1]
 BV BOUND     y[1,4,2]
 BV BOUND     y[1,4,3]
 BV BOUND     y[2,1,1]
 BV BOUND     y[2,1,2]
 BV BOUND     y[2,1,3]
 BV BOUND     y[2,2,1]
 BV BOUND     y[2,2,2]
 BV BOUND     y[2,2,3]
 BV BOUND     y[2,3,1]
 BV BOUND     y[2,3,2]
 BV BOUND     y[2,3,3]
 BV BOUND     y[2,4,1]
 BV BOUND     y[2,4,2]
 BV BOUND     y[2,4,3]
 BV BOUND     z[1,1]  
 BV BOUND     z[1,2]  
 BV BOUND     z[1,3]  
 BV BOUND     z[2,1]  
 BV BOUND     z[2,2]  
 BV BOUND     z[2,3]  
 BV BOUND     z[3,1]  
 BV BOUND     z[3,2]  
 BV BOUND     z[3,3]  
 BV BOUND     z[4,1]  
 BV BOUND     z[4,2]  
 BV BOUND     z[4,3]  
ENDATA
